NAME : in_house_7_1
TYPE : TSP
DIMENSION : 7
EDGE_WEIGHT_TYPE : EXPLICIT
EDGE_WEIGHT_FORMAT : UPPER_ROW
COMMENT : INVERSION_SHIFT=3
EDGE_WEIGHT_SECTION
16
11
42
35
17
23
6
3
5
24
34
15
39
37
6
30
49
20
10
37
16
